Route #1: 5 18 21 60 8 37 41 50 36 15 51 3 6
Route #2: 9 62 53 25 17 55 59 61 33 64 48 47 11 26 16 56 13 44 54 39 28 24 38 27 29 31 20 49 43 10 35 52 32 40 45 22 12 1 42 14 57
Route #3: 19 23
Route #4: 30
Route #5: 46 2 58 4 63
Route #6: 7 34
Route #7: 
Route #8: 
Route #9: 
cost 2012.1366476483279
